NAME : instance_13_200
TYPE : TSP
DIMENSION : 13
EDGE_WEIGHT_TYPE : EUC_2D
LOWER : 0
UPPER : 100
NODE_COORD_SECTION
1 45.1150553068 80.7011380326
2 4.5533237047 73.8722908543
3 26.8185294466 67.8940750426
4 40.9358513774 57.5136759784
5 6.9684509886 99.3268917548
6 49.5220201556 75.7562702056
7 76.224732562 15.8681055531
8 39.2835578881 22.0438446617
9 61.7583130253 75.4285399569
10 47.8378576925 33.7854260812
11 90.7704520505 65.898862388
12 93.2932696072 85.6487096986
13 98.9331943681 40.1711391751
EOF
